SCIP version 5.0.0 [precision: 8 byte] [memory: block] [mode: optimized] [LP solver: NONE] [GitHash: 3bbd232]
Copyright (C) 2002-2017 Konrad-Zuse-Zentrum fuer Informationstechnik Berlin (ZIB)

External codes: 
  Readline EditLine w  GNU library for command line editing (gnu.org/s/readline)
  CppAD 20160000.1     Algorithmic Differentiation of C++ algorithms developed by B. Bell (www.coin-or.org/CppAD)
  ZLIB 1.2.5           General purpose compression library by J. Gailly and M. Adler (zlib.net)
  GMP 6.1.2            GNU Multiple Precision Arithmetic Library developed by T. Granlund (gmplib.org)

user parameter file <scip.set> not found - using default parameters

read problem <../../Split_data/output/parkin/3/1_sample_parkin.logreg>
============

File name	:	../../Split_data/output/parkin/3/1_sample_parkin.logreg
Problem name 	:	1_sample_parkin
Number of data	:	156
Number of var	:	22
The given data has linear independence

[dim=1] time: 0.00297
[dim=2] time: 0.006607
[dim=3] time: 0.00948
[dim=4] time: 0.011792
[dim=5] time: 0.013853
[dim=6] time: 0.015876
[dim=7] time: 0.017707
[dim=8] Time of forward = 0.019306sec.
AIC: 76.872
k: 7

[dim=22] time: 0.254628
[dim=21] time: 0.431218
[dim=20] time: 0.599753
[dim=19] time: 0.677166
[dim=18] time: 0.795318
[dim=17] time: 0.810635
[dim=16] time: 0.852491
[dim=15] time: 0.867208
[dim=14] time: 0.942793
[dim=13] time: 0.959947
[dim=12] time: 0.969089
[dim=11] time: 0.978324
[dim=10] time: 0.981236
[dim=9] Time of backward = 0.982656sec.
AIC: 72.8891
k: 10
